

TIME = 5.000e-02

Nodal Displacements

Node          U1          U2          U3
   1   0.000e+00   0.000e+00   0.000e+00
   2   2.475e-01   0.000e+00   0.000e+00
   3   2.475e-01  -1.047e-01   0.000e+00
   4   0.000e+00  -1.047e-01   0.000e+00
   5   0.000e+00   0.000e+00  -1.047e-01
   6   2.475e-01   0.000e+00  -1.047e-01
   7   2.475e-01  -1.047e-01  -1.047e-01
   8   0.000e+00  -1.047e-01  -1.047e-01

Element Stress

        S11         S22         S33         S12         S23         S13
Element   1
  1.449e+02   2.070e-09   2.070e-09  -8.313e-16   4.523e-16  -4.859e-15
  1.449e+02   2.069e-09   2.070e-09   8.313e-16  -3.345e-15  -1.359e-14
  1.449e+02  -1.509e-10  -1.509e-10  -6.650e-15   5.348e-15  -5.274e-15
  1.449e+02   2.070e-09   2.070e-09   3.325e-15   1.551e-15  -1.857e-14
  1.449e+02  -1.509e-10  -1.509e-10  -8.313e-16   1.981e-15  -5.804e-15
  1.449e+02   2.070e-09   2.070e-09   8.313e-16  -5.613e-15  -1.453e-14
  1.449e+02  -1.509e-10  -1.509e-10  -6.650e-15   1.292e-14  -6.219e-15
  1.449e+02   2.070e-09   2.070e-09   3.325e-15   5.323e-15  -1.952e-14



TIME = 1.000e-01

Nodal Displacements

Node          U1          U2          U3
   1   0.000e+00   0.000e+00   0.000e+00
   2   4.950e-01   0.000e+00   0.000e+00
   3   4.950e-01  -1.821e-01   0.000e+00
   4   0.000e+00  -1.821e-01   0.000e+00
   5   0.000e+00   0.000e+00  -1.821e-01
   6   4.950e-01   0.000e+00  -1.821e-01
   7   4.950e-01  -1.821e-01  -1.821e-01
   8   0.000e+00  -1.821e-01  -1.821e-01

Element Stress

        S11         S22         S33         S12         S23         S13
Element   1
  2.925e+02   5.379e-07   5.379e-07   1.550e-14  -5.234e-15  -1.116e-14
  2.925e+02   5.379e-07   5.379e-07   3.293e-14  -1.726e-14  -3.538e-14
  2.925e+02   5.357e-07   5.357e-07   6.199e-14  -7.784e-15  -7.290e-15
  2.925e+02   5.357e-07   5.357e-07   1.240e-13  -1.981e-14  -2.376e-14
  2.925e+02   5.379e-07   5.379e-07   1.550e-14   9.592e-15  -1.284e-14
  2.925e+02   5.379e-07   5.379e-07   3.293e-14   3.223e-15  -3.706e-14
  2.925e+02   5.379e-07   5.379e-07   6.199e-14   4.018e-14  -8.969e-15
  2.925e+02   5.379e-07   5.379e-07   1.240e-13   3.382e-14  -2.544e-14



TIME = 1.500e-01

Nodal Displacements

Node          U1          U2          U3
   1   0.000e+00   0.000e+00   0.000e+00
   2   7.425e-01   0.000e+00   0.000e+00
   3   7.425e-01  -2.424e-01   0.000e+00
   4   0.000e+00  -2.424e-01   0.000e+00
   5   0.000e+00   0.000e+00  -2.424e-01
   6   7.425e-01   0.000e+00  -2.424e-01
   7   7.425e-01  -2.424e-01  -2.424e-01
   8   0.000e+00  -2.424e-01  -2.424e-01

Element Stress

        S11         S22         S33         S12         S23         S13
Element   1
  4.505e+02   3.107e-08   3.106e-08  -1.327e-14  -3.964e-15   1.557e-14
  4.505e+02   3.329e-08   3.329e-08  -6.636e-15  -2.172e-14   5.318e-14
  4.505e+02   3.107e-08   3.106e-08  -4.424e-14   6.829e-16   2.110e-14
  4.505e+02   3.329e-08   3.329e-08  -3.539e-14  -1.707e-14   7.530e-14
  4.505e+02   3.107e-08   3.106e-08  -1.327e-14   2.747e-15   1.221e-14
  4.505e+02   3.329e-08   3.329e-08  -6.636e-15  -3.911e-15   4.981e-14
  4.505e+02   3.107e-08   3.106e-08  -4.424e-14   1.849e-14   1.774e-14
  4.505e+02   3.329e-08   3.329e-08  -3.539e-14   1.183e-14   7.193e-14



TIME = 2.000e-01

Nodal Displacements

Node          U1          U2          U3
   1   0.000e+00   0.000e+00   0.000e+00
   2   9.900e-01   0.000e+00   0.000e+00
   3   9.900e-01  -2.911e-01   0.000e+00
   4   0.000e+00  -2.911e-01   0.000e+00
   5   0.000e+00   0.000e+00  -2.911e-01
   6   9.900e-01   0.000e+00  -2.911e-01
   7   9.900e-01  -2.911e-01  -2.911e-01
   8   0.000e+00  -2.911e-01  -2.911e-01

Element Stress

        S11         S22         S33         S12         S23         S13
Element   1
  6.227e+02   1.847e-10   1.850e-10   1.492e-14  -4.524e-15  -8.509e-16
  6.227e+02   1.847e-10   1.850e-10   9.947e-15  -1.079e-14   9.096e-15
  6.227e+02   1.846e-10   1.849e-10   4.974e-14  -2.506e-15  -8.311e-15
  6.227e+02   1.846e-10   1.849e-10   3.979e-14  -8.771e-15  -4.064e-14
  6.227e+02   6.846e-09   6.846e-09   1.492e-14  -1.165e-14  -3.658e-15
  6.227e+02   4.626e-09   4.626e-09   9.947e-15  -4.454e-14   6.289e-15
  6.227e+02   2.405e-09   2.405e-09   4.974e-14  -1.929e-14  -1.112e-14
  6.227e+02   2.405e-09   2.405e-09   3.979e-14  -5.218e-14  -4.345e-14



TIME = 2.500e-01

Nodal Displacements

Node          U1          U2          U3
   1   0.000e+00   0.000e+00   0.000e+00
   2   1.238e+00   0.000e+00   0.000e+00
   3   1.238e+00  -3.315e-01   0.000e+00
   4   0.000e+00  -3.315e-01   0.000e+00
   5   0.000e+00   0.000e+00  -3.315e-01
   6   1.238e+00   0.000e+00  -3.315e-01
   7   1.238e+00  -3.315e-01  -3.315e-01
   8   0.000e+00  -3.315e-01  -3.315e-01

Element Stress

        S11         S22         S33         S12         S23         S13
Element   1
  8.110e+02   2.149e-09   2.149e-09  -1.105e-14  -1.877e-14  -2.770e-15
  8.110e+02  -7.174e-11  -7.174e-11  -2.326e-31  -3.381e-14  -1.105e-14
  8.110e+02   2.149e-09   2.149e-09  -6.628e-14  -5.766e-14   5.515e-15
  8.110e+02  -7.174e-11  -7.174e-11  -2.209e-14  -7.270e-14   2.208e-14
  8.110e+02  -2.292e-09  -2.292e-09  -1.105e-14  -7.906e-15   1.486e-15
  8.110e+02  -7.174e-11  -7.174e-11  -2.421e-31  -7.906e-15  -6.799e-15
  8.110e+02  -2.292e-09  -2.292e-09  -6.628e-14  -2.758e-14   9.770e-15
  8.110e+02  -7.174e-11  -7.174e-11  -2.209e-14  -2.758e-14   2.634e-14



TIME = 3.000e-01

Nodal Displacements

Node          U1          U2          U3
   1   0.000e+00   0.000e+00   0.000e+00
   2   1.485e+00   0.000e+00   0.000e+00
   3   1.485e+00  -3.656e-01   0.000e+00
   4   0.000e+00  -3.656e-01   0.000e+00
   5   0.000e+00   0.000e+00  -3.656e-01
   6   1.485e+00   0.000e+00  -3.656e-01
   7   1.485e+00  -3.656e-01  -3.656e-01
   8   0.000e+00  -3.656e-01  -3.656e-01

Element Stress

        S11         S22         S33         S12         S23         S13
Element   1
  1.017e+03  -1.331e-09  -1.331e-09   3.036e-14   1.169e-14  -1.749e-14
  1.017e+03  -1.331e-09  -1.331e-09   6.073e-15   2.781e-14  -7.214e-14
  1.017e+03  -1.331e-09  -1.331e-09   1.215e-13   2.865e-14  -2.963e-14
  1.017e+03  -1.331e-09  -1.331e-09   3.120e-30   4.477e-14  -1.207e-13
  1.017e+03   8.893e-10   8.891e-10   3.036e-14  -1.156e-14  -1.944e-14
  1.017e+03  -1.331e-09  -1.331e-09   6.073e-15  -1.693e-14  -7.409e-14
  1.017e+03  -1.331e-09  -1.331e-09   1.215e-13  -3.699e-14  -3.158e-14
  1.017e+03  -3.552e-09  -3.552e-09  -2.638e-30  -4.237e-14  -1.227e-13



TIME = 3.500e-01

Nodal Displacements

Node          U1          U2          U3
   1   0.000e+00   0.000e+00   0.000e+00
   2   1.733e+00   0.000e+00   0.000e+00
   3   1.733e+00  -3.950e-01   0.000e+00
   4   0.000e+00  -3.950e-01   0.000e+00
   5   0.000e+00   0.000e+00  -3.950e-01
   6   1.733e+00   0.000e+00  -3.950e-01
   7   1.733e+00  -3.950e-01  -3.950e-01
   8   0.000e+00  -3.950e-01  -3.950e-01

Element Stress

        S11         S22         S33         S12         S23         S13
Element   1
  1.240e+03   1.298e-09   1.298e-09  -6.622e-15  -4.097e-15  -2.141e-14
  1.240e+03   3.518e-09   3.518e-09  -1.987e-14  -3.875e-14  -6.777e-14
  1.240e+03  -9.228e-10  -9.228e-10  -2.649e-14   2.370e-14  -4.857e-15
  1.240e+03   1.298e-09   1.298e-09  -5.298e-14  -1.095e-14  -1.479e-14
  1.240e+03  -9.228e-10  -9.228e-10  -6.622e-15  -1.025e-15  -2.888e-14
  1.240e+03  -9.228e-10  -9.228e-10  -1.987e-14  -1.450e-14  -7.524e-14
  1.240e+03  -3.143e-09  -3.143e-09  -2.649e-14  -2.427e-15  -1.233e-14
  1.240e+03  -3.143e-09  -3.143e-09  -5.298e-14  -1.590e-14  -2.226e-14



TIME = 4.000e-01

Nodal Displacements

Node          U1          U2          U3
   1   0.000e+00   0.000e+00   0.000e+00
   2   1.980e+00   0.000e+00   0.000e+00
   3   1.980e+00  -4.207e-01   0.000e+00
   4   0.000e+00  -4.207e-01   0.000e+00
   5   0.000e+00   0.000e+00  -4.207e-01
   6   1.980e+00   0.000e+00  -4.207e-01
   7   1.980e+00  -4.207e-01  -4.207e-01
   8   0.000e+00  -4.207e-01  -4.207e-01

Element Stress

        S11         S22         S33         S12         S23         S13
Element   1
  1.482e+03   6.263e-10   6.263e-10   7.171e-15   1.050e-14  -1.605e-15
  1.482e+03   6.263e-10   6.263e-10   2.151e-14   2.500e-14   1.981e-15
  1.482e+03   6.263e-10   6.263e-10   1.577e-31   2.465e-14   9.152e-15
  1.482e+03   6.263e-10   6.263e-10   5.737e-14   3.915e-14   3.067e-14
  1.482e+03   6.263e-10   6.263e-10   7.171e-15   2.480e-14   8.249e-15
  1.482e+03   6.263e-10   6.263e-10   2.151e-14   4.965e-14   1.183e-14
  1.482e+03   6.263e-10   6.263e-10   3.092e-30   6.104e-14   1.901e-14
  1.482e+03   6.263e-10   6.263e-10   5.737e-14   8.589e-14   4.052e-14



TIME = 4.500e-01

Nodal Displacements

Node          U1          U2          U3
   1   0.000e+00   0.000e+00   0.000e+00
   2   2.228e+00   0.000e+00   0.000e+00
   3   2.228e+00  -4.434e-01   0.000e+00
   4   0.000e+00  -4.434e-01   0.000e+00
   5   0.000e+00   0.000e+00  -4.434e-01
   6   2.228e+00   0.000e+00  -4.434e-01
   7   2.228e+00  -4.434e-01  -4.434e-01
   8   0.000e+00  -4.434e-01  -4.434e-01

Element Stress

        S11         S22         S33         S12         S23         S13
Element   1
  1.742e+03   2.506e-09   2.506e-09  -2.316e-14  -1.202e-15  -2.115e-14
  1.742e+03   2.852e-10   2.852e-10   1.544e-14  -7.884e-15  -5.975e-14
  1.742e+03   2.506e-09   2.506e-09  -6.177e-14   6.263e-15  -5.704e-15
  1.742e+03   2.852e-10   2.852e-10   6.177e-14  -4.184e-16  -2.887e-14
  1.742e+03  -1.936e-09  -1.936e-09  -2.316e-14   2.754e-14  -3.047e-14
  1.742e+03   2.852e-10   2.852e-10   1.544e-14   2.976e-14  -6.908e-14
  1.742e+03  -1.936e-09  -1.936e-09  -6.177e-14   8.771e-14  -1.503e-14
  1.742e+03   2.852e-10   2.852e-10   6.177e-14   8.994e-14  -3.820e-14



TIME = 5.000e-01

Nodal Displacements

Node          U1          U2          U3
   1   0.000e+00   0.000e+00   0.000e+00
   2   2.475e+00   0.000e+00   0.000e+00
   3   2.475e+00  -4.635e-01   0.000e+00
   4   0.000e+00  -4.635e-01   0.000e+00
   5   0.000e+00   0.000e+00  -4.635e-01
   6   2.475e+00   0.000e+00  -4.635e-01
   7   2.475e+00  -4.635e-01  -4.635e-01
   8   0.000e+00  -4.635e-01  -4.635e-01

Element Stress

        S11         S22         S33         S12         S23         S13
Element   1
  2.022e+03  -2.004e-09  -2.004e-09  -1.654e-14  -1.163e-14   4.122e-15
  2.022e+03   2.162e-10   2.161e-10   1.654e-14   2.729e-15   1.653e-14
  2.022e+03  -2.004e-09  -2.004e-09  -3.308e-14  -5.442e-14   8.257e-15
  2.022e+03   2.162e-10   2.161e-10   3.308e-14  -4.006e-14   3.307e-14
  2.022e+03  -2.004e-09  -2.004e-09  -1.654e-14   4.951e-15   1.071e-14
  2.022e+03   2.162e-10   2.161e-10   1.654e-14   2.649e-14   2.311e-14
  2.022e+03   2.163e-10   2.163e-10  -3.308e-14   2.843e-15   1.484e-14
  2.022e+03   2.437e-09   2.437e-09   3.308e-14   2.438e-14   3.965e-14



TIME = 5.500e-01

Nodal Displacements

Node          U1          U2          U3
   1   0.000e+00   0.000e+00   0.000e+00
   2   2.723e+00   0.000e+00   0.000e+00
   3   2.723e+00  -4.817e-01   0.000e+00
   4   0.000e+00  -4.817e-01   0.000e+00
   5   0.000e+00   0.000e+00  -4.817e-01
   6   2.723e+00   0.000e+00  -4.817e-01
   7   2.723e+00  -4.817e-01  -4.817e-01
   8   0.000e+00  -4.817e-01  -4.817e-01

Element Stress

        S11         S22         S33         S12         S23         S13
Element   1
  2.320e+03  -2.929e-10  -2.928e-10   2.646e-14  -1.230e-14  -4.157e-14
  2.320e+03   1.927e-09   1.928e-09  -1.134e-30  -2.514e-14  -1.430e-13
  2.320e+03  -2.514e-09  -2.513e-09   1.058e-13  -4.091e-14  -2.393e-14
  2.320e+03  -2.934e-10  -2.934e-10  -3.528e-14  -5.376e-14  -9.008e-14
  2.320e+03  -2.931e-10  -2.929e-10   2.646e-14  -2.245e-14  -3.995e-14
  2.320e+03  -4.735e-09  -4.735e-09  -6.493e-31  -1.474e-14  -1.414e-13
  2.320e+03  -2.931e-10  -2.929e-10   1.058e-13  -9.045e-14  -2.231e-14
  2.320e+03  -4.735e-09  -4.735e-09  -3.528e-14  -8.274e-14  -8.846e-14



TIME = 6.000e-01

Nodal Displacements

Node          U1          U2          U3
   1   0.000e+00   0.000e+00   0.000e+00
   2   2.970e+00   0.000e+00   0.000e+00
   3   2.970e+00  -4.981e-01   0.000e+00
   4   0.000e+00  -4.981e-01   0.000e+00
   5   0.000e+00   0.000e+00  -4.981e-01
   6   2.970e+00   0.000e+00  -4.981e-01
   7   2.970e+00  -4.981e-01  -4.981e-01
   8   0.000e+00  -4.981e-01  -4.981e-01

Element Stress

        S11         S22         S33         S12         S23         S13
Element   1
  2.637e+03   1.469e-09   1.469e-09  -2.011e-32  -9.960e-15  -3.571e-15
  2.637e+03   1.469e-09   1.469e-09  -1.874e-14  -3.473e-14  -1.762e-14
  2.637e+03  -7.520e-10  -7.520e-10   3.748e-14   1.767e-16   1.517e-14
  2.637e+03  -7.520e-10  -7.520e-10  -7.495e-14  -2.459e-14   5.733e-14
  2.637e+03   1.469e-09   1.469e-09   7.784e-32  -7.010e-15  -6.551e-15
  2.637e+03  -7.520e-10  -7.520e-10  -1.874e-14   1.247e-15  -2.060e-14
  2.637e+03   1.469e-09   1.469e-09   3.748e-14  -4.091e-14   1.219e-14
  2.637e+03  -7.520e-10  -7.520e-10  -7.495e-14  -3.265e-14   5.435e-14



TIME = 6.500e-01

Nodal Displacements

Node          U1          U2          U3
   1   0.000e+00   0.000e+00   0.000e+00
   2   3.218e+00   0.000e+00   0.000e+00
   3   3.218e+00  -5.130e-01   0.000e+00
   4   0.000e+00  -5.130e-01   0.000e+00
   5   0.000e+00   0.000e+00  -5.130e-01
   6   3.218e+00   0.000e+00  -5.130e-01
   7   3.218e+00  -5.130e-01  -5.130e-01
   8   0.000e+00  -5.130e-01  -5.130e-01

Element Stress

        S11         S22         S33         S12         S23         S13
Element   1
  2.974e+03  -4.382e-10  -4.382e-10   9.918e-15  -2.731e-15  -3.576e-14
  2.974e+03  -4.382e-10  -4.382e-10  -6.482e-31  -2.628e-14  -1.151e-13
  2.974e+03  -4.382e-10  -4.382e-10   3.967e-14   2.594e-14  -1.592e-14
  2.974e+03  -4.382e-10  -4.382e-10   7.627e-31   2.385e-15  -7.543e-14
  2.974e+03  -2.659e-09  -2.659e-09   9.918e-15   4.629e-15  -2.471e-14
  2.974e+03  -2.659e-09  -2.659e-09   1.338e-31  -7.147e-15  -1.041e-13
  2.974e+03  -2.659e-09  -2.659e-09   3.967e-14   2.005e-14  -4.877e-15
  2.974e+03  -2.659e-09  -2.659e-09   1.596e-30   8.273e-15  -6.439e-14



TIME = 7.000e-01

Nodal Displacements

Node          U1          U2          U3
   1   0.000e+00   0.000e+00   0.000e+00
   2   3.465e+00   0.000e+00   0.000e+00
   3   3.465e+00  -5.267e-01   0.000e+00
   4   0.000e+00  -5.267e-01   0.000e+00
   5   0.000e+00   0.000e+00  -5.267e-01
   6   3.465e+00   0.000e+00  -5.267e-01
   7   3.465e+00  -5.267e-01  -5.267e-01
   8   0.000e+00  -5.267e-01  -5.267e-01

Element Stress

        S11         S22         S33         S12         S23         S13
Element   1
  3.330e+03   3.759e-09   3.759e-09  -5.234e-14  -2.513e-14   8.127e-15
  3.330e+03   3.759e-09   3.759e-09  -6.280e-14  -1.194e-13  -2.328e-14
  3.330e+03  -6.826e-10  -6.832e-10  -1.675e-13  -1.815e-14   7.093e-14
  3.330e+03  -6.826e-10  -6.832e-10  -2.512e-13  -1.125e-13   2.489e-13
  3.330e+03  -2.904e-09  -2.903e-09  -5.234e-14   2.196e-15  -3.178e-15
  3.330e+03  -2.904e-09  -2.903e-09  -6.280e-14   3.363e-14  -3.458e-14
  3.330e+03  -6.832e-10  -6.826e-10  -1.675e-13  -1.545e-14   5.963e-14
  3.330e+03  -6.832e-10  -6.826e-10  -2.512e-13   1.599e-14   2.376e-13



TIME = 7.500e-01

Nodal Displacements

Node          U1          U2          U3
   1   0.000e+00   0.000e+00   0.000e+00
   2   3.713e+00   0.000e+00   0.000e+00
   3   3.713e+00  -5.393e-01   0.000e+00
   4   0.000e+00  -5.393e-01   0.000e+00
   5   0.000e+00   0.000e+00  -5.393e-01
   6   3.713e+00   0.000e+00  -5.393e-01
   7   3.713e+00  -5.393e-01  -5.393e-01
   8   0.000e+00  -5.393e-01  -5.393e-01

Element Stress

        S11         S22         S33         S12         S23         S13
Element   1
  3.705e+03   1.009e-09   1.009e-09  -2.203e-14  -1.774e-14   3.943e-16
  3.705e+03   1.009e-09   1.009e-09  -1.102e-14  -3.114e-14   3.943e-16
  3.705e+03  -1.212e-09  -1.212e-09  -1.322e-13  -4.542e-14   2.243e-14
  3.705e+03  -1.212e-09  -1.212e-09  -4.407e-14  -5.882e-14   4.446e-14
  3.705e+03  -1.212e-09  -1.212e-09  -2.203e-14   4.036e-15   2.520e-15
  3.705e+03  -1.212e-09  -1.212e-09  -1.102e-14   4.036e-15   2.520e-15
  3.705e+03  -1.212e-09  -1.212e-09  -1.322e-13   3.498e-14   2.455e-14
  3.705e+03  -1.212e-09  -1.212e-09  -4.407e-14   3.498e-14   4.659e-14



TIME = 8.000e-01

Nodal Displacements

Node          U1          U2          U3
   1   0.000e+00   0.000e+00   0.000e+00
   2   3.960e+00   0.000e+00   0.000e+00
   3   3.960e+00  -5.510e-01   0.000e+00
   4   0.000e+00  -5.510e-01   0.000e+00
   5   0.000e+00   0.000e+00  -5.510e-01
   6   3.960e+00   0.000e+00  -5.510e-01
   7   3.960e+00  -5.510e-01  -5.510e-01
   8   0.000e+00  -5.510e-01  -5.510e-01

Element Stress

        S11         S22         S33         S12         S23         S13
Element   1
  4.100e+03  -4.137e-09  -4.137e-09   3.470e-14   4.152e-14   4.924e-14
  4.100e+03   2.526e-09   2.525e-09   1.157e-14   7.715e-14   9.550e-14
  4.100e+03  -1.916e-09  -1.916e-09   9.253e-14   8.870e-14  -8.591e-15
  4.100e+03   4.747e-09   4.747e-09   1.988e-30   1.243e-13  -4.329e-14
  4.100e+03   2.525e-09   2.525e-09   3.470e-14  -1.015e-14   6.404e-14
  4.100e+03   2.525e-09   2.525e-09   1.157e-14  -2.441e-14   1.103e-13
  4.100e+03   3.042e-10   3.042e-10   9.253e-14   1.743e-14   6.212e-15
  4.100e+03   3.042e-10   3.042e-10   2.461e-30   3.175e-15  -2.849e-14



TIME = 8.500e-01

Nodal Displacements

Node          U1          U2          U3
   1   0.000e+00   0.000e+00   0.000e+00
   2   4.208e+00   0.000e+00   0.000e+00
   3   4.208e+00  -5.618e-01   0.000e+00
   4   0.000e+00  -5.618e-01   0.000e+00
   5   0.000e+00   0.000e+00  -5.618e-01
   6   4.208e+00   0.000e+00  -5.618e-01
   7   4.208e+00  -5.618e-01  -5.618e-01
   8   0.000e+00  -5.618e-01  -5.618e-01

Element Stress

        S11         S22         S33         S12         S23         S13
Element   1
  4.514e+03  -1.827e-10  -1.825e-10  -1.212e-14   2.563e-14   6.995e-14
  4.514e+03  -2.404e-09  -2.404e-09  -3.635e-14   1.164e-13   2.880e-13
  4.514e+03   2.039e-09   2.039e-09  -4.846e-14   5.326e-15  -2.697e-14
  4.514e+03  -1.825e-10  -1.827e-10  -9.692e-14   9.614e-14  -9.966e-14
  4.514e+03   6.480e-09   6.481e-09  -1.212e-14  -4.968e-14   6.414e-14
  4.514e+03   2.038e-09   2.039e-09  -3.635e-14  -1.405e-13   2.822e-13
  4.514e+03   2.039e-09   2.039e-09  -4.846e-14  -1.103e-13  -3.278e-14
  4.514e+03  -4.625e-09  -4.624e-09  -9.692e-14  -2.012e-13  -1.055e-13



TIME = 9.000e-01

Nodal Displacements

Node          U1          U2          U3
   1   0.000e+00   0.000e+00   0.000e+00
   2   4.455e+00   0.000e+00   0.000e+00
   3   4.455e+00  -5.718e-01   0.000e+00
   4   0.000e+00  -5.718e-01   0.000e+00
   5   0.000e+00   0.000e+00  -5.718e-01
   6   4.455e+00   0.000e+00  -5.718e-01
   7   4.455e+00  -5.718e-01  -5.718e-01
   8   0.000e+00  -5.718e-01  -5.718e-01

Element Stress

        S11         S22         S33         S12         S23         S13
Element   1
  4.947e+03   6.099e-10   6.102e-10  -1.266e-14  -1.311e-14  -3.498e-14
  4.947e+03   6.112e-10   6.112e-10   1.266e-14  -6.124e-14  -1.996e-13
  4.947e+03   6.099e-10   6.102e-10   5.511e-31   2.208e-14  -2.232e-14
  4.947e+03   6.112e-10   6.112e-10   5.066e-14  -2.605e-14  -9.830e-14
  4.947e+03  -1.611e-09  -1.611e-09  -1.266e-14   1.477e-14  -4.891e-14
  4.947e+03  -1.610e-09  -1.610e-09   1.266e-14   2.279e-14  -2.135e-13
  4.947e+03  -1.611e-09  -1.611e-09  -3.194e-30   7.536e-14  -3.625e-14
  4.947e+03  -1.610e-09  -1.610e-09   5.066e-14   8.338e-14  -1.122e-13



TIME = 9.500e-01

Nodal Displacements

Node          U1          U2          U3
   1   0.000e+00   0.000e+00   0.000e+00
   2   4.702e+00   0.000e+00   0.000e+00
   3   4.702e+00  -5.812e-01   0.000e+00
   4   0.000e+00  -5.812e-01   0.000e+00
   5   0.000e+00   0.000e+00  -5.812e-01
   6   4.702e+00   0.000e+00  -5.812e-01
   7   4.702e+00  -5.812e-01  -5.812e-01
   8   0.000e+00  -5.812e-01  -5.812e-01

Element Stress

        S11         S22         S33         S12         S23         S13
Element   1
  5.400e+03  -1.662e-10  -1.662e-10  -2.643e-14  -3.062e-14   2.715e-14
  5.400e+03   2.054e-09   2.054e-09  -3.964e-14  -4.759e-14   1.064e-13
  5.400e+03  -2.388e-09  -2.388e-09  -5.285e-14  -6.907e-14   5.357e-14
  5.400e+03  -1.675e-10  -1.671e-10  -1.586e-13  -8.604e-14   1.593e-13
  5.400e+03   2.055e-09   2.055e-09  -2.643e-14  -2.597e-14   3.654e-14
  5.400e+03   2.054e-09   2.054e-09  -3.964e-14  -2.597e-14   1.158e-13
  5.400e+03  -1.662e-10  -1.662e-10  -5.285e-14  -8.847e-14   6.296e-14
  5.400e+03  -1.671e-10  -1.675e-10  -1.586e-13  -8.847e-14   1.687e-13



TIME = 1.000e+00

Nodal Displacements

Node          U1          U2          U3
   1   0.000e+00   0.000e+00   0.000e+00
   2   4.950e+00   0.000e+00   0.000e+00
   3   4.950e+00  -5.900e-01   0.000e+00
   4   0.000e+00  -5.900e-01   0.000e+00
   5   0.000e+00   0.000e+00  -5.900e-01
   6   4.950e+00   0.000e+00  -5.900e-01
   7   4.950e+00  -5.900e-01  -5.900e-01
   8   0.000e+00  -5.900e-01  -5.900e-01

Element Stress

        S11         S22         S33         S12         S23         S13
Element   1
  5.872e+03  -2.490e-09  -2.490e-09  -1.408e-32   2.653e-15  -1.465e-15
  5.872e+03  -2.490e-09  -2.490e-09  -2.752e-14   2.653e-15  -1.465e-15
  5.872e+03  -2.490e-09  -2.490e-09  -2.923e-32   2.616e-14  -2.899e-14
  5.872e+03  -2.490e-09  -2.490e-09  -1.101e-13   2.616e-14  -1.116e-13
  5.872e+03  -2.490e-09  -2.490e-09   1.150e-32  -3.726e-14  -1.709e-16
  5.872e+03  -4.712e-09  -4.712e-09  -2.752e-14  -9.104e-14  -1.709e-16
  5.872e+03  -2.490e-09  -2.490e-09  -3.115e-31  -8.397e-14  -2.770e-14
  5.872e+03  -4.712e-09  -4.712e-09  -1.101e-13  -1.378e-13  -1.103e-13

		***Successful end of the program***
