

TIME = 1.000e+00

Nodal Displacements

Node          U1          U2          U3
   1   0.000e+00   0.000e+00   0.000e+00
   2  -5.607e-02   0.000e+00   0.000e+00
   3  -5.607e-02  -5.607e-02   0.000e+00
   4   0.000e+00  -5.607e-02   0.000e+00
   5  -1.776e-17  -1.316e-17   1.933e-01
   6  -5.607e-02   6.714e-17   1.933e-01
   7  -5.607e-02  -5.607e-02   1.933e-01
   8  -7.265e-17  -5.607e-02   1.933e-01

Element Stress

        S11         S22         S33         S12         S23         S13
Element   1
 -2.404e-12  -2.404e-12   4.000e+04   0.000e+00   4.698e-13  -2.596e-13
 -6.042e-12  -6.042e-12   4.000e+04   1.530e-12   1.916e-13   5.027e-12
  6.695e-13   6.695e-13   4.000e+04  -1.808e-12   2.812e-13  -5.586e-12
  6.695e-13   6.695e-13   4.000e+04   2.782e-13   2.971e-15  -6.142e-12
  3.179e-12   3.179e-12   4.000e+04   6.956e-13   1.223e-12  -1.431e-12
 -4.588e-13  -4.588e-13   4.000e+04   2.365e-12  -4.898e-12   3.855e-12
 -2.404e-12  -6.042e-12   4.000e+04  -1.113e-12   1.220e-12  -5.685e-12
 -6.042e-12  -6.042e-12   4.000e+04   1.113e-12  -4.901e-12  -6.241e-12

		***Successful end of the program***
